clingo.log
clingo version 5.7.1
Reading from calendar.cl
Solving...
Answer: 1
assign(1,fri,1,pres) assign(1,fri,2,pres) assign(16,tue,5,aupm) assign(16,tue,6,aupm) assign(8,sat,5,aupm) assign(8,sat,6,aupm) assign(9,sat,3,aupm) assign(9,sat,4,aupm) assign(11,sat,5,aupm) assign(11,sat,6,aupm) assign(10,sat,2,aupm) assign(11,sat,2,aupm) assign(7,mon,2,aupm) assign(7,mon,5,aupm) assign(7,mon,6,aupm) assign(6,sat,3,aupm) assign(6,sat,4,aupm) assign(1,fri,3,fictpp) assign(1,fri,4,fictpp) assign(1,fri,7,fictpp) assign(1,fri,8,fictpp) assign(2,fri,1,fictpp) assign(2,fri,2,fictpp) assign(10,fri,7,fictpp) assign(10,fri,8,fictpp) assign(15,fri,5,fictpp) assign(15,fri,6,fictpp) assign(16,fri,5,fictpp) assign(16,fri,6,fictpp) assign(16,fri,7,fictpp) assign(16,fri,8,fictpp) assign(7,fri,7,psawm1) assign(8,fri,7,psawm1) assign(11,fri,7,psawm1) assign(14,fri,7,psawm1) assign(15,sat,1,psawm1) assign(15,sat,2,psawm1) assign(7,fri,8,psawm1) assign(8,fri,8,psawm1) assign(11,fri,8,psawm1) assign(14,fri,8,psawm1) assign(14,sat,1,psawm2) assign(14,sat,2,psawm2) assign(4,fri,5,pbd) assign(4,fri,6,pbd) assign(6,fri,5,pbd) assign(6,fri,6,pbd) assign(1,sat,5,smism) assign(1,sat,6,smism) assign(3,sat,1,smism) assign(3,sat,2,smism) assign(3,sat,3,smism) assign(3,sat,4,smism) assign(7,mon,3,pgdi) assign(7,mon,4,pgdi) assign(7,tue,3,pgdi) assign(7,tue,4,pgdi) assign(7,tue,5,pgdi) assign(7,tue,6,pgdi) assign(7,thu,3,pgdi) assign(7,thu,4,pgdi) assign(7,thu,5,pgdi) assign(7,thu,6,pgdi) assign(1,fri,5,pgdi) assign(1,fri,6,pgdi) assign(3,fri,7,pgdi) assign(7,fri,1,pgdi) assign(7,fri,2,pgdi) assign(7,fri,5,pgdi) assign(7,fri,6,pgdi) assign(9,fri,3,pgdi) assign(9,fri,4,pgdi) assign(10,fri,1,pgdi) assign(10,fri,2,pgdi) assign(10,fri,5,pgdi) assign(10,fri,6,pgdi) assign(11,fri,1,pgdi) assign(11,fri,2,pgdi) assign(11,fri,5,pgdi) assign(11,fri,6,pgdi) assign(12,fri,5,pgdi) assign(12,fri,6,pgdi) assign(12,fri,7,pgdi) assign(13,fri,5,pgdi) assign(13,fri,6,pgdi) assign(14,fri,1,pgdi) assign(14,fri,2,pgdi) assign(14,fri,3,pgdi) assign(14,fri,4,pgdi) assign(1,sat,1,pgdi) assign(1,sat,2,pgdi) assign(2,sat,3,pgdi) assign(2,sat,4,pgdi) assign(4,sat,3,pgdi) assign(4,sat,4,pgdi) assign(6,sat,5,pgdi) assign(6,sat,6,pgdi) assign(7,sat,1,pgdi) assign(7,sat,2,pgdi) assign(9,sat,5,pgdi) assign(9,sat,6,pgdi) assign(10,sat,5,pgdi) assign(10,sat,6,pgdi) assign(14,sat,5,pgdi) assign(14,sat,6,pgdi) assign(2,fri,5,aeisg) assign(2,fri,6,aeisg) assign(2,fri,7,aeisg) assign(2,fri,8,aeisg) assign(3,fri,1,aeisg) assign(3,fri,2,aeisg) assign(3,fri,5,aeisg) assign(3,fri,6,aeisg) assign(4,fri,1,aeisg) assign(4,fri,2,aeisg) assign(4,fri,3,aeisg) assign(4,fri,4,aeisg) assign(5,fri,3,aeisg) assign(5,fri,4,aeisg) assign(5,fri,7,aeisg) assign(5,fri,8,aeisg) assign(6,fri,3,aeisg) assign(6,fri,4,aeisg) assign(6,fri,7,aeisg) assign(6,fri,8,aeisg) assign(7,fri,3,aeisg) assign(7,fri,4,aeisg) assign(8,fri,1,aeisg) assign(8,fri,2,aeisg) assign(8,fri,3,aeisg) assign(8,fri,4,aeisg) assign(9,fri,1,aeisg) assign(9,fri,2,aeisg) assign(9,fri,7,aeisg) assign(9,fri,8,aeisg) assign(10,fri,3,aeisg) assign(10,fri,4,aeisg) assign(12,fri,3,aeisg) assign(12,fri,4,aeisg) assign(13,fri,1,aeisg) assign(13,fri,2,aeisg) assign(15,fri,7,aeisg) assign(15,fri,8,aeisg) assign(16,fri,1,aeisg) assign(16,fri,2,aeisg) assign(16,fri,3,aeisg) assign(16,fri,4,aeisg) assign(1,sat,3,aeisg) assign(1,sat,4,aeisg) assign(8,fri,5,g3d) assign(8,fri,6,g3d) assign(9,fri,5,g3d) assign(9,fri,6,g3d) assign(3,sat,5,g3d) assign(3,sat,6,g3d) hoursCount(pres,2) assign(16,mon,1,free) assign(16,mon,2,free) assign(16,mon,5,free) assign(16,mon,6,free) assign(7,wed,1,free) assign(7,wed,2,free) assign(7,wed,5,free) assign(7,wed,6,free) assign(7,wed,7,free) assign(7,wed,8,free) assign(7,thu,1,free) assign(7,thu,2,free) assign(7,thu,7,free) assign(7,thu,8,free) assign(4,fri,7,free) assign(4,fri,8,free) assign(6,fri,1,free) assign(6,fri,2,free) assign(13,fri,7,free) assign(13,fri,8,free) assign(15,fri,3,free) assign(15,fri,4,free) assign(5,sat,1,free) assign(5,sat,2,free) assign(5,sat,5,free) assign(5,sat,6,free) assign(6,sat,1,free) assign(6,sat,2,free) assign(7,sat,3,free) assign(7,sat,4,free) assign(13,sat,3,free) assign(13,sat,4,free) assign(13,sat,5,free) assign(13,sat,6,free) assign(14,sat,3,free) assign(14,sat,4,free) assign(15,sat,5,free) assign(15,sat,6,free) hoursCount(free,38) hoursCount(fictpp,14) assign(4,sat,1,gq) assign(4,sat,2,gq) assign(4,sat,5,gq) assign(4,sat,6,gq) assign(15,sat,3,gq) assign(15,sat,4,gq) assign(16,sat,3,gq) assign(16,sat,4,gq) assign(16,sat,5,gq) assign(16,sat,6,gq) hoursCount(gq,10) assign(3,fri,8,pgdi) assign(12,fri,8,pgdi) assign(16,sat,1,pgdi) assign(16,sat,2,pgdi) hoursCount(pgdi,56) hoursCount(pbd,4) hoursCount(smism,6) hoursCount(aeisg,44) assign(7,mon,1,aupm) assign(14,fri,5,aupm) assign(14,fri,6,aupm) assign(15,fri,1,aupm) assign(15,fri,2,aupm) assign(10,sat,1,aupm) assign(11,sat,1,aupm) hoursCount(aupm,22) assign(2,fri,3,rdp) assign(2,fri,4,rdp) assign(3,fri,3,rdp) assign(3,fri,4,rdp) assign(5,fri,5,rdp) assign(5,fri,6,rdp) assign(12,fri,1,rdp) assign(12,fri,2,rdp) assign(2,sat,1,rdp) assign(2,sat,2,rdp) hoursCount(rdp,10) assign(16,thu,5,tsmd) assign(16,thu,6,tsmd) hoursCount(tsmd,2) assign(7,mon,7,aes) assign(7,mon,8,aes) assign(5,fri,1,aes) assign(5,fri,2,aes) hoursCount(aes,4) assign(7,tue,1,cpcp) assign(7,tue,2,cpcp) assign(16,wed,3,cpcp) assign(16,wed,4,cpcp) assign(11,fri,3,cpcp) assign(11,fri,4,cpcp) hoursCount(cpcp,6) assign(16,mon,3,semu) assign(16,mon,4,semu) assign(7,tue,7,semu) assign(7,tue,8,semu) assign(2,sat,5,semu) assign(2,sat,6,semu) assign(5,sat,3,semu) assign(5,sat,4,semu) assign(12,sat,5,semu) assign(12,sat,6,semu) hoursCount(semu,10) assign(16,mon,7,g3d) assign(16,mon,8,g3d) assign(16,tue,1,g3d) assign(16,tue,2,g3d) assign(16,tue,7,g3d) assign(16,tue,8,g3d) assign(16,wed,5,g3d) assign(16,wed,6,g3d) assign(16,wed,7,g3d) assign(16,wed,8,g3d) assign(16,thu,3,g3d) assign(16,thu,4,g3d) assign(16,thu,7,g3d) assign(16,thu,8,g3d) hoursCount(g3d,20) hoursCount(psawm1,10) assign(16,tue,3,psawm2) assign(16,tue,4,psawm2) assign(7,wed,3,psawm2) assign(7,wed,4,psawm2) assign(16,wed,1,psawm2) assign(16,wed,2,psawm2) assign(16,thu,1,psawm2) assign(16,thu,2,psawm2) hoursCount(psawm2,10) assign(7,sat,5,gru) assign(7,sat,6,gru) assign(8,sat,1,gru) assign(8,sat,2,gru) assign(8,sat,3,gru) assign(8,sat,4,gru) assign(11,sat,3,gru) assign(11,sat,4,gru) assign(12,sat,1,gru) assign(12,sat,2,gru) hoursCount(gru,10) assign(13,fri,3,vgp) assign(13,fri,4,vgp) assign(9,sat,1,vgp) assign(9,sat,2,vgp) assign(10,sat,3,vgp) assign(10,sat,4,vgp) assign(12,sat,3,vgp) assign(12,sat,4,vgp) assign(13,sat,1,vgp) assign(13,sat,2,vgp) hoursCount(vgp,10)
SATISFIABLE

Models       : 1+
Calls        : 1
Time         : 32.004s (Solving: 3.70s 1st Model: 3.68s Unsat: 0.00s)
CPU Time     : 50.049s
Threads      : 6        (Winner: 1)
